outputs/case_443.model.txt
fund_holding_stock_or_equity_derivative = True
person_or_related_party_trading = False
person_is_natural_person = True
duty_of_care_and_loyalty_followed = False
related_party_is_spouse_or_second_degree_blood_relative_or_enterprise_responsible_by_person_or_spouse = True
person_is_legal_person = False
related_party_is_controlled_or_mutually_controlled_legal_person = False
unauthorized_agent_trading_except_legal_agent = False
transfer_orders_between_fund_and_other_accounts = False
publicly_recommend_or_forecast_specific_securities = False
self_dealing_or_undue_related_party_trading = False
reported_to_fund_company = True
providing_or_receiving_undue_benefits_for_promotion = False
no_prohibited_behaviors = True
selling_proxy_votes_for_money_or_benefits = False
fraud_or_misleading_behavior = False
not_return_commission_or_benefits_to_fund = False
use_nonprofessional_to_recruit_or_pay_unreasonable_commission = False
insider_trading_or_leakage = False
prohibited_trading_period = True
fiduciary_duty_met = False
reporting_obligation = True
penalty = False
other_behaviors_harming_investors_or_company = False
manipulate_market_price_or_harm_investors = False
related_party_definition_ok = True